23 -5 9 12 0 10 11 21 22 6 0
24 -3 0 13 14 15 23 20 4 5 21 22 12 0
25 -8 5 0 24 8 12 19 1 3 20 22 17 0
26 -12 5 0 17 18 20 25 4 21 0
27 12 -4 0 24 1 5 19 22 9 0
28 6 5 0 20 26 27 0
28 d 20 0
29 5 0 24 28 25 26 16 21 2 6 19 22 9 0
30 0 24 29 7 10 11 19 2 3 21 22 18 0
